(set-logic QF_S)
(declare-fun _var_0xINPUT_378954_() String)
(declare-fun __woorpje_diseq_pref0_() String)
(declare-fun __woorpje_diseq_suf_l0_() String)
(declare-fun __woorpje_diseq_suf_r0_() String)
(declare-fun __woorpje_diseq_pref1_() String)
(declare-fun __woorpje_diseq_suf_l1_() String)
(declare-fun __woorpje_diseq_suf_r1_() String)
(assert (=(str.++  "2vbcJ9lN6J" "")(str.++ _var_0xINPUT_378954_  "")) )
(assert  (<= (* (str.len _var_0xINPUT_378954_)(- 1)) (- 1)) )
(assert  (<= (* (str.len _var_0xINPUT_378954_)(- 1)) (- 1)) )
(check-sat)
